12 26
1 3 241
1 4 334
1 9 221
1 11 275
2 7 53
2 8 402
2 12 355
3 4 341
3 8 184
3 9 70
3 11 417
3 12 301
4 11 200
5 6 438
5 8 429
5 12 340
6 8 282
6 9 258
6 10 192
7 8 421
7 12 359
8 9 179
8 10 464
8 12 119
9 10 448
9 12 298
